c 0.002866506576538086 (encode time in sec)
p cnf 90 280
1 2 3 8 0
1 2 -3 6 0
1 -2 3 4 0
1 -2 -3 5 0
-1 2 3 7 0
-1 2 -3 0
-1 -2 3 0
-1 -2 -3 0
9 10 11 12 0
9 10 -11 13 0
9 -10 11 15 0
9 -10 -11 14 0
-9 10 11 16 0
-9 10 -11 0
-9 -10 11 0
-9 -10 -11 0
17 18 19 20 0
17 18 -19 23 0
17 -18 19 22 0
17 -18 -19 21 0
-17 18 19 24 0
-17 18 -19 0
-17 -18 19 0
-17 -18 -19 0
25 26 27 1 2 3 9 10 11 29 0
25 26 27 1 2 3 9 10 -11 28 0
25 26 27 1 2 3 9 -10 11 28 0
25 26 27 1 2 3 9 -10 -11 0
25 26 27 1 2 3 -9 10 11 28 0
25 26 27 1 2 -3 9 10 11 29 0
25 26 27 1 2 -3 9 10 -11 32 0
25 26 27 1 2 -3 9 -10 11 0
25 26 27 1 2 -3 9 -10 -11 0
25 26 27 1 2 -3 -9 10 11 28 0
25 26 27 1 -2 3 9 10 11 30 0
25 26 27 1 -2 3 9 10 -11 0
25 26 27 1 -2 3 9 -10 11 0
25 26 27 1 -2 3 9 -10 -11 0
25 26 27 1 -2 3 -9 10 11 28 0
25 26 27 1 -2 -3 9 10 11 0
25 26 27 1 -2 -3 9 10 -11 0
25 26 27 1 -2 -3 9 -10 11 0
25 26 27 1 -2 -3 9 -10 -11 0
25 26 27 1 -2 -3 -9 10 11 0
25 26 27 -1 2 3 9 10 11 0
25 26 27 -1 2 3 9 10 -11 0
25 26 27 -1 2 3 9 -10 11 0
25 26 27 -1 2 3 9 -10 -11 28 0
25 26 27 -1 2 3 -9 10 11 28 0
25 26 -27 1 2 3 9 10 11 0
25 26 -27 1 2 3 9 10 -11 28 0
25 26 -27 1 2 3 9 -10 11 28 0
25 26 -27 1 2 3 9 -10 -11 0
25 26 -27 1 2 3 -9 10 11 28 0
25 26 -27 1 2 -3 9 10 11 0
25 26 -27 1 2 -3 9 10 -11 32 0
25 26 -27 1 2 -3 9 -10 11 33 0
25 26 -27 1 2 -3 9 -10 -11 0
25 26 -27 1 2 -3 -9 10 11 28 0
25 26 -27 1 -2 3 9 10 11 34 0
25 26 -27 1 -2 3 9 10 -11 35 0
25 26 -27 1 -2 3 9 -10 11 46 0
25 26 -27 1 -2 3 9 -10 -11 0
25 26 -27 1 -2 3 -9 10 11 28 0
25 26 -27 1 -2 -3 9 10 11 29 0
25 26 -27 1 -2 -3 9 10 -11 0
25 26 -27 1 -2 -3 9 -10 11 0
25 26 -27 1 -2 -3 9 -10 -11 0
25 26 -27 1 -2 -3 -9 10 11 0
25 26 -27 -1 2 3 9 10 11 29 0
25 26 -27 -1 2 3 9 10 -11 0
25 26 -27 -1 2 3 9 -10 11 0
25 26 -27 -1 2 3 9 -10 -11 28 0
25 26 -27 -1 2 3 -9 10 11 28 0
25 -26 27 1 2 3 9 10 11 0
25 -26 27 1 2 3 9 10 -11 28 0
25 -26 27 1 2 3 9 -10 11 28 0
25 -26 27 1 2 3 9 -10 -11 29 0
25 -26 27 1 2 3 -9 10 11 28 0
25 -26 27 1 2 -3 9 10 11 0
25 -26 27 1 2 -3 9 10 -11 0
25 -26 27 1 2 -3 9 -10 11 36 0
25 -26 27 1 2 -3 9 -10 -11 45 0
25 -26 27 1 2 -3 -9 10 11 28 0
25 -26 27 1 -2 3 9 10 11 0
25 -26 27 1 -2 3 9 10 -11 41 0
25 -26 27 1 -2 3 9 -10 11 37 0
25 -26 27 1 -2 3 9 -10 -11 32 0
25 -26 27 1 -2 3 -9 10 11 28 0
25 -26 27 1 -2 -3 9 10 11 0
25 -26 27 1 -2 -3 9 10 -11 29 0
25 -26 27 1 -2 -3 9 -10 11 38 0
25 -26 27 1 -2 -3 9 -10 -11 0
25 -26 27 1 -2 -3 -9 10 11 0
25 -26 27 -1 2 3 9 10 11 0
25 -26 27 -1 2 3 9 10 -11 30 0
25 -26 27 -1 2 3 9 -10 11 0
25 -26 27 -1 2 3 9 -10 -11 28 0
25 -26 27 -1 2 3 -9 10 11 28 0
25 -26 -27 1 2 3 9 10 11 0
25 -26 -27 1 2 3 9 10 -11 28 0
25 -26 -27 1 2 3 9 -10 11 28 0
25 -26 -27 1 2 3 9 -10 -11 0
25 -26 -27 1 2 3 -9 10 11 28 0
25 -26 -27 1 2 -3 9 10 11 0
25 -26 -27 1 2 -3 9 10 -11 0
25 -26 -27 1 2 -3 9 -10 11 0
25 -26 -27 1 2 -3 9 -10 -11 40 0
25 -26 -27 1 2 -3 -9 10 11 28 0
25 -26 -27 1 -2 3 9 10 11 0
25 -26 -27 1 -2 3 9 10 -11 0
25 -26 -27 1 -2 3 9 -10 11 42 0
25 -26 -27 1 -2 3 9 -10 -11 32 0
25 -26 -27 1 -2 3 -9 10 11 28 0
25 -26 -27 1 -2 -3 9 10 11 0
25 -26 -27 1 -2 -3 9 10 -11 0
25 -26 -27 1 -2 -3 9 -10 11 32 0
25 -26 -27 1 -2 -3 9 -10 -11 44 0
25 -26 -27 1 -2 -3 -9 10 11 0
25 -26 -27 -1 2 3 9 10 11 0
25 -26 -27 -1 2 3 9 10 -11 34 0
25 -26 -27 -1 2 3 9 -10 11 29 0
25 -26 -27 -1 2 3 9 -10 -11 28 0
25 -26 -27 -1 2 3 -9 10 11 28 0
-25 26 27 1 2 3 9 10 11 0
-25 26 27 1 2 3 9 10 -11 28 0
-25 26 27 1 2 3 9 -10 11 28 0
-25 26 27 1 2 3 9 -10 -11 0
-25 26 27 1 2 3 -9 10 11 28 0
-25 26 27 1 2 -3 9 10 11 0
-25 26 27 1 2 -3 9 10 -11 0
-25 26 27 1 2 -3 9 -10 11 0
-25 26 27 1 2 -3 9 -10 -11 0
-25 26 27 1 2 -3 -9 10 11 28 0
-25 26 27 1 -2 3 9 10 11 0
-25 26 27 1 -2 3 9 10 -11 0
-25 26 27 1 -2 3 9 -10 11 0
-25 26 27 1 -2 3 9 -10 -11 0
-25 26 27 1 -2 3 -9 10 11 28 0
-25 26 27 1 -2 -3 9 10 11 0
-25 26 27 1 -2 -3 9 10 -11 0
-25 26 27 1 -2 -3 9 -10 11 39 0
-25 26 27 1 -2 -3 9 -10 -11 43 0
-25 26 27 1 -2 -3 -9 10 11 29 0
-25 26 27 -1 2 3 9 10 11 0
-25 26 27 -1 2 3 9 10 -11 0
-25 26 27 -1 2 3 9 -10 11 0
-25 26 27 -1 2 3 9 -10 -11 28 0
-25 26 27 -1 2 3 -9 10 11 28 0
-25 26 -27 0
-25 -26 27 0
-25 -26 -27 0
47 48 49 17 18 19 25 26 27 50 0
47 48 49 17 18 19 25 26 -27 51 0
47 48 49 17 18 19 25 -26 27 66 0
47 48 49 17 18 19 25 -26 -27 87 0
47 48 49 17 18 19 -25 26 27 50 0
47 48 49 17 18 -19 25 26 27 52 0
47 48 49 17 18 -19 25 26 -27 53 0
47 48 49 17 18 -19 25 -26 27 86 0
47 48 49 17 18 -19 25 -26 -27 75 0
47 48 49 17 18 -19 -25 26 27 77 0
47 48 49 17 -18 19 25 26 27 54 0
47 48 49 17 -18 19 25 26 -27 84 0
47 48 49 17 -18 19 25 -26 27 81 0
47 48 49 17 -18 19 25 -26 -27 63 0
47 48 49 17 -18 19 -25 26 27 77 0
47 48 49 17 -18 -19 25 26 27 78 0
47 48 49 17 -18 -19 25 26 -27 75 0
47 48 49 17 -18 -19 25 -26 27 79 0
47 48 49 17 -18 -19 25 -26 -27 88 0
47 48 49 17 -18 -19 -25 26 27 70 0
47 48 49 -17 18 19 25 26 27 78 0
47 48 49 -17 18 19 25 26 -27 78 0
47 48 49 -17 18 19 25 -26 27 69 0
47 48 49 -17 18 19 25 -26 -27 50 0
47 48 49 -17 18 19 -25 26 27 50 0
47 48 -49 17 18 19 25 26 27 50 0
47 48 -49 17 18 19 25 26 -27 78 0
47 48 -49 17 18 19 25 -26 27 55 0
47 48 -49 17 18 19 25 -26 -27 87 0
47 48 -49 17 18 19 -25 26 27 50 0
47 48 -49 17 18 -19 25 26 27 71 0
47 48 -49 17 18 -19 25 26 -27 56 0
47 48 -49 17 18 -19 25 -26 27 72 0
47 48 -49 17 18 -19 25 -26 -27 75 0
47 48 -49 17 18 -19 -25 26 27 77 0
47 48 -49 17 -18 19 25 26 27 57 0
47 48 -49 17 -18 19 25 26 -27 58 0
47 48 -49 17 -18 19 25 -26 27 81 0
47 48 -49 17 -18 19 25 -26 -27 63 0
47 48 -49 17 -18 19 -25 26 27 77 0
47 48 -49 17 -18 -19 25 26 27 51 0
47 48 -49 17 -18 -19 25 26 -27 59 0
47 48 -49 17 -18 -19 25 -26 27 79 0
47 48 -49 17 -18 -19 25 -26 -27 88 0
47 48 -49 17 -18 -19 -25 26 27 70 0
47 48 -49 -17 18 19 25 26 27 51 0
47 48 -49 -17 18 19 25 26 -27 51 0
47 48 -49 -17 18 19 25 -26 27 69 0
47 48 -49 -17 18 19 25 -26 -27 50 0
47 48 -49 -17 18 19 -25 26 27 50 0
47 -48 49 17 18 19 25 26 27 50 0
47 -48 49 17 18 19 25 26 -27 78 0
47 -48 49 17 18 19 25 -26 27 55 0
47 -48 49 17 18 19 25 -26 -27 60 0
47 -48 49 17 18 19 -25 26 27 50 0
47 -48 49 17 18 -19 25 26 27 71 0
47 -48 49 17 18 -19 25 26 -27 79 0
47 -48 49 17 18 -19 25 -26 27 82 0
47 -48 49 17 18 -19 25 -26 -27 80 0
47 -48 49 17 18 -19 -25 26 27 77 0
47 -48 49 17 -18 19 25 26 27 83 0
47 -48 49 17 -18 19 25 26 -27 76 0
47 -48 49 17 -18 19 25 -26 27 90 0
47 -48 49 17 -18 19 25 -26 -27 63 0
47 -48 49 17 -18 19 -25 26 27 77 0
47 -48 49 17 -18 -19 25 26 27 78 0
47 -48 49 17 -18 -19 25 26 -27 59 0
47 -48 49 17 -18 -19 25 -26 27 89 0
47 -48 49 17 -18 -19 25 -26 -27 88 0
47 -48 49 17 -18 -19 -25 26 27 70 0
47 -48 49 -17 18 19 25 26 27 78 0
47 -48 49 -17 18 19 25 26 -27 78 0
47 -48 49 -17 18 19 25 -26 27 69 0
47 -48 49 -17 18 19 25 -26 -27 50 0
47 -48 49 -17 18 19 -25 26 27 50 0
47 -48 -49 17 18 19 25 26 27 50 0
47 -48 -49 17 18 19 25 26 -27 78 0
47 -48 -49 17 18 19 25 -26 27 66 0
47 -48 -49 17 18 19 25 -26 -27 64 0
47 -48 -49 17 18 19 -25 26 27 50 0
47 -48 -49 17 18 -19 25 26 27 71 0
47 -48 -49 17 18 -19 25 26 -27 79 0
47 -48 -49 17 18 -19 25 -26 27 86 0
47 -48 -49 17 18 -19 25 -26 -27 73 0
47 -48 -49 17 18 -19 -25 26 27 77 0
47 -48 -49 17 -18 19 25 26 27 83 0
47 -48 -49 17 -18 19 25 26 -27 84 0
47 -48 -49 17 -18 19 25 -26 27 62 0
47 -48 -49 17 -18 19 25 -26 -27 65 0
47 -48 -49 17 -18 19 -25 26 27 77 0
47 -48 -49 17 -18 -19 25 26 27 78 0
47 -48 -49 17 -18 -19 25 26 -27 75 0
47 -48 -49 17 -18 -19 25 -26 27 85 0
47 -48 -49 17 -18 -19 25 -26 -27 74 0
47 -48 -49 17 -18 -19 -25 26 27 70 0
47 -48 -49 -17 18 19 25 26 27 78 0
47 -48 -49 -17 18 19 25 26 -27 78 0
47 -48 -49 -17 18 19 25 -26 27 67 0
47 -48 -49 -17 18 19 25 -26 -27 50 0
47 -48 -49 -17 18 19 -25 26 27 50 0
-47 48 49 17 18 19 25 26 27 50 0
-47 48 49 17 18 19 25 26 -27 78 0
-47 48 49 17 18 19 25 -26 27 66 0
-47 48 49 17 18 19 25 -26 -27 87 0
-47 48 49 17 18 19 -25 26 27 50 0
-47 48 49 17 18 -19 25 26 27 71 0
-47 48 49 17 18 -19 25 26 -27 79 0
-47 48 49 17 18 -19 25 -26 27 86 0
-47 48 49 17 18 -19 25 -26 -27 75 0
-47 48 49 17 18 -19 -25 26 27 61 0
-47 48 49 17 -18 19 25 26 27 83 0
-47 48 49 17 -18 19 25 26 -27 84 0
-47 48 49 17 -18 19 25 -26 27 81 0
-47 48 49 17 -18 19 25 -26 -27 63 0
-47 48 49 17 -18 19 -25 26 27 61 0
-47 48 49 17 -18 -19 25 26 27 78 0
-47 48 49 17 -18 -19 25 26 -27 75 0
-47 48 49 17 -18 -19 25 -26 27 79 0
-47 48 49 17 -18 -19 25 -26 -27 88 0
-47 48 49 17 -18 -19 -25 26 27 68 0
-47 48 49 -17 18 19 25 26 27 78 0
-47 48 49 -17 18 19 25 26 -27 78 0
-47 48 49 -17 18 19 25 -26 27 69 0
-47 48 49 -17 18 19 25 -26 -27 50 0
-47 48 49 -17 18 19 -25 26 27 50 0
-47 48 -49 0
-47 -48 49 0
-47 -48 -49 0
